(assert (forall ((pkt_0_6_8_0  Int  )(pkt_1_7_9_0  Int  )(state_group_0_state_0_8_a_0  Int  )(state_group_1_state_0_9_b_0  Int  )(state_group_2_state_0_a_c_0  Int  )) (let ((_n0 30 ))
(let ((_n1 pkt_1_7_9_0 ))
(let ((_n2 (<   _n1   _n0 ) ))
(let ((_n3 state_group_1_state_0_9_b_0 ))
(let ((_n4 (+   _n3   _n1 ) ))
(let ((_n5 (ite  _n2   _n4   _n3  ) ))
(let ((_n6 (<   _n3   _n0 ) ))
(let ((_n7 false ))
(let ((_n8 pkt_0_6_8_0 ))
(let ((_n9 (<   (ite  _n7  1 0)   _n1 ) ))
(let ((_n10 (ite  _n9   _n1   (ite  _n7  1 0)  ) ))
(let ((_n11 (ite (=  (ite  _n9  1 0)  1)  _n10   (ite  _n7  1 0)  ) ))
(let ((_n12 (ite (=  _n8  0)  _n11   (ite  _n7  1 0)  ) ))
(let ((_n13 (ite (=  _n8  0)  _n12   _n11  ) ))
(let ((_n14 (ite  _n6   _n13   (ite  _n7  1 0)  ) ))
(let ((_n15 (+   _n3   _n14 ) ))
(let ((_n16 (ite (=  (ite  _n6  1 0)  1)  _n15   _n3  ) ))
(let ((_n17 (=   _n16   _n5 ) ))
(let ((_n19 state_group_2_state_0_a_c_0 ))
(let ((_n20 true ))
(let ((_n21 (+   _n19   (ite  _n20  1 0) ) ))
(let ((_n22 (ite  _n2   _n21   _n19  ) ))
(let ((_n23 678 ))
(let ((_n24 (=   _n1   _n23 ) ))
(let ((_n25 (not  _n24 ) ))
(let ((_n26 (+   _n19   (ite  _n25  1 0) ) ))
(let ((_n27 (ite (=  (ite  _n25  1 0)  1)  _n26   _n19  ) ))
(let ((_n28 (=   _n27   _n22 ) ))
(let ((_n30 (=   _n8   (ite  _n7  1 0) ) ))
(let ((_n31 (not  _n30 ) ))
(let ((_n32 (ite (=  _n8  0)  (ite  _n7  1 0)   _n8  ) ))
(let ((_n33 (ite (=  (ite  _n31  1 0)  1)  _n32   (ite  _n7  1 0)  ) ))
(let ((_n34 (=   _n33   _n8 ) ))
(let ((_n36 (=   _n11   (ite  _n7  1 0) ) ))
(let ((_n37 (not  _n36 ) ))
(let ((_n38 (ite (=  _n11  0)  (ite  _n7  1 0)   _n13  ) ))
(let ((_n39 (ite (=  (ite  _n37  1 0)  1)  _n38   (ite  _n7  1 0)  ) ))
(let ((_n40 (=   _n39   _n1 ) ))
(let ((_n42 state_group_0_state_0_8_a_0 ))
(implies  (and (and (>= state_group_2_state_0_a_c_0 0) (< state_group_2_state_0_a_c_0 1024 ))  (and (and (>= state_group_1_state_0_9_b_0 0) (< state_group_1_state_0_9_b_0 1024 ))  (and (and (>= state_group_0_state_0_8_a_0 0) (< state_group_0_state_0_8_a_0 1024 ))  (and (and (>= pkt_1_7_9_0 0) (< pkt_1_7_9_0 1024 ))  (and (>= pkt_0_6_8_0 0) (< pkt_0_6_8_0 1024 )) ) ) ) )   (and  _n17  _n28  _n34  _n40 )  ))))))))))))))))))))))))))))))))))))))))))
(check-sat)
(get-model)
(exit)